Problem:    b
Rows:       8
Columns:    9 (9 integer, 0 binary)
Non-zeros:  19
Status:     INTEGER OPTIMAL
Objective:  z = 10679800 (MAXimum)

   No.   Row name        Activity     Lower bound   Upper bound
------ ------------    ------------- ------------- -------------
     1 z                 1.10298e+07                             
     2 entradasGold             -100          -100             = 
     3 entradasSilver
                                   0            -0             = 
     4 merchandisingTotal
                                   0            -0             = 
     5 merchandisingGold
                                   2            -0               
     6 merchandisingSilver
                                   0            -0               
     7 capacidadPredio
                                8000                        8000 
     8 minimasSilver
                                 500           500               

   No. Column name       Activity     Lower bound   Upper bound
------ ------------    ------------- ------------- -------------
     1 Cg           *           7750             0               
     2 Cs           *            500             0               
     3 Cm           *            994             0               
     4 Pg           *              0             0               
     5 Ps           *              0             0               
     6 Cgv          *           7650             0               
     7 Csv          *            500             0               
     8 Cmg          *            969             0               
     9 Cms          *             25             0               

Integer feasibility conditions:

KKT.PE: max.abs.err = 0.00e+00 on row 0
        max.rel.err = 0.00e+00 on row 0
        High quality

KKT.PB: max.abs.err = 0.00e+00 on row 0
        max.rel.err = 0.00e+00 on row 0
        High quality

End of output
